ITEM: TIMESTEP
750000
ITEM: NUMBER OF ATOMS
440
ITEM: BOX BOUNDS mm mm mm
-3e-06 0.030003
-8e-06 0.080008
-3e-06 0.030003
ITEM: ATOMS v_x1 v_y1 v_z1 v_rad1 
1.59983e-05 4.17549e-05 0.000215999 1.6e-05 
1.37985e-05 1.35564e-05 0.000212499 1.25e-05 
4.12916e-05 3.19492e-05 0.000211498 1.15e-05 
3.65064e-05 1.04996e-05 0.000210499 1.05e-05 
1.14998e-05 6.85081e-05 0.000211499 1.15e-05 
5.96963e-05 1.04996e-05 0.000210499 1.05e-05 
6.32291e-05 4.16274e-05 0.000212499 1.25e-05 
0.000107323 4.76574e-05 0.000212499 1.25e-05 
0.000114866 1.04984e-05 0.000210498 1.05e-05 
8.45367e-05 5.00483e-05 0.000210499 1.05e-05 
8.72822e-05 2.04997e-05 0.000220498 2.05e-05 
0.00010407 7.03371e-05 0.000210499 1.05e-05 
0.000149492 7.06466e-05 0.000213499 1.35e-05 
0.000183218 1.04998e-05 0.000210499 1.05e-05 
0.000182961 4.25027e-05 0.000221998 2.2e-05 
0.000161581 1.04996e-05 0.000210499 1.05e-05 
0.00021271 3.56036e-05 0.000210499 1.05e-05 
0.000221585 1.34996e-05 0.000213499 1.35e-05 
0.000235142 6.25412e-05 0.000211498 1.15e-05 
0.000251916 1.04991e-05 0.000210498 1.05e-05 
0.000262262 6.31994e-05 0.000215999 1.6e-05 
0.0002885 5.19727e-05 0.000211499 1.15e-05 
0.000248402 3.98781e-05 0.000211499 1.15e-05 
0.000279501 2.05002e-05 0.000220498 2.05e-05 
3.80805e-05 8.61247e-05 0.000215998 1.6e-05 
7.08727e-05 0.000116831 0.000213499 1.35e-05 
1.14996e-05 9.15504e-05 0.000211499 1.15e-05 
1.59998e-05 0.000118304 0.000215999 1.6e-05 
4.11111e-05 0.000111869 0.000210499 1.05e-05 
8.47788e-05 0.000142006 0.000210499 1.05e-05 
0.000132399 9.11337e-05 0.000211499 1.15e-05 
0.000105799 0.000125302 0.000215999 1.6e-05 
0.000128654 0.00011296 0.000210499 1.05e-05 
7.48964e-05 7.88761e-05 0.000221998 2.2e-05 
0.000106843 9.48578e-05 0.000214499 1.45e-05 
0.000171751 8.14207e-05 0.000210499 1.05e-05 
0.00015878 0.000108911 0.000221998 2.2e-05 
0.000199947 7.96963e-05 0.000218998 1.9e-05 
0.000193183 0.000111004 0.000213499 1.35e-05 
0.000163177 0.000141831 0.000212499 1.25e-05 
0.000287501 7.59622e-05 0.000212499 1.25e-05 
0.000281001 0.000106091 0.000218998 1.9e-05 
0.000239639 9.54606e-05 0.000223998 2.4e-05 
4.63451e-05 0.000143183 0.000223998 2.4e-05 
1.14999e-05 0.000147392 0.000211499 1.15e-05 
1.89998e-05 0.000175988 0.000218998 1.9e-05 
5.94712e-05 0.000183823 0.000218998 1.9e-05 
0.000135147 0.000138056 0.000215999 1.6e-05 
7.65641e-05 0.000161332 0.000210499 1.05e-05 
0.000106945 0.000162807 0.000221998 2.2e-05 
8.94492e-05 0.000190982 0.000212499 1.25e-05 
0.000141416 0.000181152 0.000211499 1.15e-05 
0.00015162 0.000161664 0.000210499 1.05e-05 
0.000217437 0.000131944 0.000218998 1.9e-05 
0.000184371 0.000133124 0.000210499 1.05e-05 
0.000205576 0.000162954 0.000214499 1.45e-05 
0.000182562 0.000154046 0.000210499 1.05e-05 
0.000174449 0.00018474 0.000223998 2.4e-05 
0.000256159 0.000134844 0.000218998 1.9e-05 
0.000235266 0.000153856 0.000210499 1.05e-05 
0.000286115 0.000147011 0.000213499 1.35e-05 
0.000255663 0.000168036 0.000214499 1.45e-05 
0.000289501 0.00017058 0.000210499 1.05e-05 
0.000241977 0.000189938 0.000211499 1.15e-05 
3.2554e-05 0.000214602 0.000221998 2.2e-05 
6.01929e-05 0.0002552 0.000214499 1.45e-05 
1.04986e-05 0.000235518 0.000210499 1.05e-05 
2.39995e-05 0.000264252 0.000223998 2.4e-05 
7.60383e-05 0.000221315 0.000221998 2.2e-05 
0.000120274 0.000206787 0.000223998 2.4e-05 
8.44238e-05 0.000250532 0.000210498 1.05e-05 
0.000105608 0.000239664 0.000213499 1.35e-05 
0.000214218 0.000200306 0.000218998 1.9e-05 
0.000190566 0.000230047 0.000218998 1.9e-05 
0.000157196 0.000219929 0.000215998 1.6e-05 
0.000210891 0.000253216 0.000212499 1.25e-05 
0.000220137 0.000230868 0.000211499 1.15e-05 
0.000242759 0.000214845 0.000213499 1.35e-05 
0.000247543 0.000242759 0.000210498 1.05e-05 
0.000289494 0.000228078 0.000210499 1.05e-05 
0.000276001 0.000256836 0.000223998 2.4e-05 
0.000262556 0.000228076 0.000210498 1.05e-05 
5.22264e-05 0.000284334 0.000212499 1.25e-05 
1.04992e-05 0.000292987 0.000210499 1.05e-05 
1.1499e-05 0.00031494 0.000211499 1.15e-05 
3.12373e-05 0.000305277 0.000210499 1.05e-05 
3.02364e-05 0.000326422 0.000210499 1.05e-05 
5.97183e-05 0.000312955 0.000217498 1.75e-05 
0.000120755 0.000274024 0.000211499 1.15e-05 
8.68011e-05 0.00028219 0.000223998 2.4e-05 
0.000112874 0.000304996 0.000212499 1.25e-05 
0.000143707 0.000325139 0.000210499 1.05e-05 
0.000122714 0.000325687 0.000210498 1.05e-05 
0.000142616 0.000296912 0.000218998 1.9e-05 
0.000153286 0.000270757 0.000210499 1.05e-05 
0.000183651 0.000272135 0.000221998 2.2e-05 
0.000215116 0.00027682 0.000211499 1.15e-05 
0.000201867 0.000298215 0.000211498 1.15e-05 
0.000207716 0.000320598 0.000210499 1.05e-05 
0.000177381 0.000318523 0.000221998 2.2e-05 
0.000241927 0.000268456 0.000213499 1.35e-05 
0.000289499 0.000290695 0.000210499 1.05e-05 
0.000267495 0.000288965 0.000211499 1.15e-05 
0.000278001 0.000318996 0.000221998 2.2e-05 
0.000234635 0.00030371 0.000223997 2.4e-05 
4.81052e-05 0.000337452 0.000210499 1.05e-05 
1.14986e-05 0.000337939 0.000211499 1.15e-05 
4.78627e-05 0.000364553 0.000210499 1.05e-05 
6.75615e-05 0.000351177 0.000213499 1.35e-05 
4.91448e-05 0.00038833 0.000213498 1.35e-05 
2.8504e-05 0.000402291 0.000211499 1.15e-05 
1.05237e-05 0.000360299 0.000210499 1.05e-05 
1.05249e-05 0.000388188 0.000210499 1.05e-05 
2.80972e-05 0.000372275 0.000210499 1.05e-05 
9.37812e-05 0.000330695 0.000220498 2.05e-05 
7.51282e-05 0.000380994 0.000213498 1.35e-05 
0.000109765 0.000358759 0.000210499 1.05e-05 
0.000128293 0.000346943 0.000211499 1.15e-05 
0.000100838 0.000384733 0.000212499 1.25e-05 
8.89618e-05 0.000361614 0.000210499 1.05e-05 
0.000132092 0.000377796 0.000220498 2.05e-05 
0.000150192 0.000345112 0.000210499 1.05e-05 
0.000222987 0.000343007 0.000217499 1.75e-05 
0.000193867 0.000348189 0.000212499 1.25e-05 
0.000170956 0.000348233 0.000210499 1.05e-05 
0.000158595 0.000365207 0.000210499 1.05e-05 
0.000164191 0.000388131 0.000212499 1.25e-05 
0.000181069 0.000369664 0.000212499 1.25e-05 
0.000210061 0.000375532 0.000217498 1.75e-05 
0.000253722 0.000343458 0.000213498 1.35e-05 
0.000281001 0.000360242 0.000218998 1.9e-05 
0.000288501 0.000388837 0.000211499 1.15e-05 
0.000248221 0.000384684 0.000221998 2.2e-05 
5.78027e-05 0.000410512 0.000210499 1.05e-05 
3.7139e-05 0.000426631 0.000214498 1.45e-05 
1.14999e-05 0.000420467 0.000211499 1.15e-05 
3.76513e-05 0.000458486 0.000217498 1.75e-05 
1.052e-05 0.000467685 0.000210499 1.05e-05 
1.15009e-05 0.000445728 0.000211499 1.15e-05 
7.10438e-05 0.000437873 0.000221998 2.2e-05 
7.28314e-05 0.000469634 0.000211499 1.15e-05 
0.000146951 0.000407568 0.000213499 1.35e-05 
8.15186e-05 0.000409338 0.000210499 1.05e-05 
0.0001001 0.0004468 0.000210499 1.05e-05 
0.000124026 0.000452842 0.000214499 1.45e-05 
0.000139526 0.00043364 0.000210499 1.05e-05 
0.000191834 0.000400286 0.000213499 1.35e-05 
0.000150234 0.000456689 0.000210499 1.05e-05 
0.000172068 0.000417147 0.000212499 1.25e-05 
0.000164357 0.000439851 0.000211499 1.15e-05 
0.000204396 0.000420515 0.000210499 1.05e-05 
0.00018812 0.000436641 0.000212499 1.25e-05 
0.00022129 0.000447395 0.000223998 2.4e-05 
0.000170816 0.000460857 0.000210499 1.05e-05 
0.000191837 0.00045925 0.000210499 1.05e-05 
0.000229664 0.000412172 0.000212499 1.25e-05 
0.000247813 0.000429944 0.000210499 1.05e-05 
0.0002895 0.000462926 0.000210499 1.05e-05 
0.000262486 0.000456668 0.000217498 1.75e-05 
0.000277001 0.000419262 0.000222998 2.3e-05 
5.30385e-05 0.000482323 0.000211499 1.15e-05 
4.28101e-05 0.000522397 0.000210499 1.05e-05 
2.3493e-05 0.000496029 0.000222998 2.3e-05 
5.34536e-05 0.000504295 0.000210499 1.05e-05 
9.97848e-05 0.000472721 0.000215999 1.6e-05 
0.000137591 0.000473456 0.000210498 1.05e-05 
0.000121474 0.000486918 0.000210499 1.05e-05 
0.000107538 0.000508776 0.000215999 1.6e-05 
0.000137235 0.000504863 0.000213499 1.35e-05 
7.03803e-05 0.000525716 0.000214499 1.45e-05 
7.80941e-05 0.000496247 0.000215999 1.6e-05 
0.00012671 0.000526222 0.000210499 1.05e-05 
0.000182711 0.000478163 0.000210499 1.05e-05 
0.000205623 0.000478291 0.000212499 1.25e-05 
0.000152344 0.000530075 0.000215998 1.6e-05 
0.000157307 0.000486805 0.000213499 1.35e-05 
0.000218382 0.000507269 0.000212498 1.25e-05 
0.000184526 0.00050919 0.000222998 2.3e-05 
0.000240318 0.000513884 0.000210499 1.05e-05 
0.000240333 0.000485635 0.000218998 1.9e-05 
0.000279501 0.000490512 0.000220498 2.05e-05 
0.000284001 0.000526452 0.000215998 1.6e-05 
0.000261315 0.000513539 0.000210499 1.05e-05 
1.89991e-05 0.000537595 0.000218998 1.9e-05 
5.01509e-05 0.000545048 0.000213499 1.35e-05 
7.28528e-05 0.000552834 0.000210499 1.05e-05 
3.33428e-05 0.000563445 0.000211499 1.15e-05 
1.09471e-05 0.000568457 0.000210499 1.05e-05 
5.63024e-05 0.000581905 0.000211498 1.15e-05 
7.25032e-05 0.000603355 0.000213499 1.35e-05 
1.04989e-05 0.000589452 0.000210499 1.05e-05 
0.000106025 0.000534654 0.000210499 1.05e-05 
9.72649e-05 0.000557805 0.000210499 1.05e-05 
0.000126611 0.000555564 0.000220498 2.05e-05 
8.16395e-05 0.000576906 0.000214499 1.45e-05 
0.000106316 0.000576754 0.000210499 1.05e-05 
0.00013448 0.000590975 0.000215999 1.6e-05 
0.000220232 0.000536789 0.000217498 1.75e-05 
0.000176592 0.000539241 0.000210499 1.05e-05 
0.000195497 0.000548385 0.000210499 1.05e-05 
0.000165865 0.000567397 0.000220498 2.05e-05 
0.000161218 0.000596384 0.000210499 1.05e-05 
0.000247175 0.000533784 0.000210499 1.05e-05 
0.000265295 0.000544399 0.000210499 1.05e-05 
0.000244948 0.000558466 0.000214498 1.45e-05 
0.000256051 0.000602893 0.000215998 1.6e-05 
0.000239896 0.000582621 0.000210498 1.05e-05 
0.000278 0.000572013 0.000221998 2.2e-05 
4.55276e-05 0.000607812 0.000211499 1.15e-05 
1.74997e-05 0.000615642 0.000217498 1.75e-05 
3.05601e-05 0.0006394 0.000210499 1.05e-05 
2.58598e-05 0.000659926 0.000210499 1.05e-05 
4.6675e-05 0.0006627 0.000210499 1.05e-05 
1.04992e-05 0.000645607 0.000210499 1.05e-05 
7.15621e-05 0.000664156 0.000210499 1.05e-05 
3.34465e-05 0.000652166 0.000228476 1.05e-05 
0.000103242 0.000603689 0.000217498 1.75e-05 
9.19721e-05 0.000629725 0.000211499 1.15e-05 
9.02939e-05 0.000652663 0.000211499 1.15e-05 
0.000112473 0.00064015 0.000211499 1.15e-05 
0.000129918 0.000621106 0.000214499 1.45e-05 
0.000110796 0.000663088 0.000211499 1.15e-05 
0.000137885 0.000652769 0.000217498 1.75e-05 
0.000196776 0.000601922 0.000210499 1.05e-05 
0.000176816 0.000613173 0.000212499 1.25e-05 
0.00015411 0.000616238 0.000210499 1.05e-05 
0.000199654 0.000625559 0.000213499 1.35e-05 
0.000166031 0.000637845 0.000214499 1.45e-05 
0.000176216 0.000662944 0.000212498 1.25e-05 
0.000223545 0.000640126 0.000214498 1.45e-05 
0.000224387 0.000609676 0.000215998 1.6e-05 
0.000284001 0.000618475 0.000215998 1.6e-05 
0.000242749 0.000660078 0.000211499 1.15e-05 
0.000250229 0.000631705 0.000213499 1.35e-05 
0.000276 0.000656841 0.000223997 2.4e-05 
1.04993e-05 0.000674245 0.000210499 1.05e-05 
5.79958e-05 0.00068262 0.000212499 1.25e-05 
3.51144e-05 0.000681431 0.000210499 1.05e-05 
3.70296e-05 0.000702343 0.000210499 1.05e-05 
6.56834e-05 0.000725097 0.000210499 1.05e-05 
1.04995e-05 0.000695243 0.000210499 1.05e-05 
5.80542e-05 0.000705532 0.000210499 1.05e-05 
1.77209e-05 0.000721374 0.000217498 1.75e-05 
4.4827e-05 0.000721841 0.000210499 1.05e-05 
8.95625e-05 0.000682155 0.000210499 1.05e-05 
8.27293e-05 0.00070587 0.000214498 1.45e-05 
0.000117483 0.000694189 0.000221998 2.2e-05 
0.000144227 0.000708638 0.000210499 1.05e-05 
0.00012853 0.00072402 0.000211499 1.15e-05 
9.32873e-05 0.000741653 0.000223998 2.4e-05 
0.000211098 0.000669451 0.000217498 1.75e-05 
0.000155357 0.000683917 0.000217498 1.75e-05 
0.000188846 0.000703823 0.000210498 1.05e-05 
0.000187537 0.000682864 0.000210499 1.05e-05 
0.000196116 0.000728705 0.000215998 1.6e-05 
0.000167391 0.000714151 0.000213499 1.35e-05 
0.00021478 0.000702713 0.000215998 1.6e-05 
0.000248095 0.000689172 0.000218998 1.9e-05 
0.000238145 0.000718652 0.000212499 1.25e-05 
0.000285501 0.00069292 0.000214498 1.45e-05 
0.000260921 0.000716158 0.000210499 1.05e-05 
0.000285501 0.000721919 0.000214498 1.45e-05 
5.13415e-05 0.000742829 0.000211499 1.15e-05 
3.11249e-05 0.000751447 0.000210499 1.05e-05 
1.0499e-05 0.000747504 0.000210498 1.05e-05 
1.05257e-05 0.000768502 0.000210499 1.05e-05 
6.30439e-05 0.000789501 0.000210499 1.05e-05 
3.67708e-05 0.000779126 0.000218999 1.9e-05 
1.04984e-05 0.000789501 0.000210499 1.05e-05 
6.48716e-05 0.000763755 0.000213499 1.35e-05 
0.000148801 0.000740022 0.000214498 1.45e-05 
8.92341e-05 0.000782501 0.000217499 1.75e-05 
0.000124678 0.000773922 0.000218998 1.9e-05 
0.00012478 0.000745674 0.000210499 1.05e-05 
0.000177876 0.000750508 0.000212499 1.25e-05 
0.000152346 0.000787501 0.000212498 1.25e-05 
0.000208766 0.000758098 0.000215998 1.6e-05 
0.000216408 0.0007865 0.000213499 1.35e-05 
0.000182473 0.000781001 0.000218998 1.9e-05 
0.000157928 0.000764181 0.000211499 1.15e-05 
0.00024005 0.0007895 0.000210499 1.05e-05 
0.00026115 0.000789501 0.000210499 1.05e-05 
0.000285501 0.000756479 0.000214499 1.45e-05 
0.0002855 0.0007855 0.000214499 1.45e-05 
0.000234831 0.000744512 0.000213498 1.35e-05 
0.000252063 0.000766558 0.000214499 1.45e-05 
4.27693e-05 5.61115e-05 0.000226055 1.6e-05 
1.04998e-05 1.04998e-05 0.000235054 1.05e-05 
4.90258e-05 1.74993e-05 0.00023542 1.75e-05 
1.59993e-05 7.69734e-05 0.000237272 1.6e-05 
7.60713e-05 4.75664e-05 0.000230631 1.05e-05 
0.00012579 6.29516e-05 0.000211499 1.15e-05 
0.000138222 3.20013e-05 0.000223998 2.4e-05 
7.37532e-05 1.04997e-05 0.000246535 1.05e-05 
0.000220012 5.04968e-05 0.000233106 1.75e-05 
0.0001724 1.16385e-05 0.000229621 1.15e-05 
0.000199288 1.2499e-05 0.000226832 1.25e-05 
0.00024323 2.24855e-05 0.000236014 1.9e-05 
0.000280366 5.05832e-05 0.000234035 1.25e-05 
8.31108e-05 0.000131133 0.000228387 1.05e-05 
5.3483e-05 0.000106389 0.0002328 1.45e-05 
0.000131236 7.65405e-05 0.00022792 1.05e-05 
8.84304e-05 0.000108638 0.000229297 1.15e-05 
0.000124295 0.000106813 0.000234335 1.45e-05 
0.00016833 7.23167e-05 0.00023134 1.25e-05 
0.000206982 0.000105526 0.000233612 1.15e-05 
0.0002875 8.10533e-05 0.000236974 1.25e-05 
0.0002895 0.000110372 0.00024692 1.05e-05 
1.04999e-05 0.000138883 0.000231762 1.05e-05 
0.000189852 0.000144138 0.000231106 1.35e-05 
0.000229952 0.00017245 0.00022471 1.35e-05 
0.0002855 0.000133356 0.000237934 1.45e-05 
1.14994e-05 0.000196266 0.00024051 1.15e-05 
5.0694e-05 0.000241261 0.000236846 1.35e-05 
0.00013653 0.000248016 0.000218999 1.9e-05 
0.000240938 0.000199066 0.000231489 1.05e-05 
0.000203992 0.000250596 0.000235358 1.05e-05 
0.000164777 0.000248307 0.000210499 1.05e-05 
0.000164713 0.000241859 0.000232575 1.25e-05 
0.000276 0.000199315 0.000223998 2.4e-05 
0.000231652 0.000246826 0.000233188 1.75e-05 
0.000255032 0.000228053 0.000232232 1.25e-05 
3.90947e-05 0.000296015 0.000228842 1.15e-05 
0.000127933 0.000333113 0.000236985 1.75e-05 
0.000200864 0.000298149 0.000234476 1.15e-05 
0.000164828 0.000293208 0.000238055 1.05e-05 
0.000150246 0.000316429 0.000239762 1.05e-05 
0.000264619 0.000288481 0.000242738 1.45e-05 
0.000288501 0.000288961 0.000232475 1.15e-05 
1.14993e-05 0.000403424 0.000226943 1.15e-05 
3.11179e-05 0.000350851 0.000225799 1.6e-05 
5.78585e-05 0.000369508 0.000238518 1.9e-05 
2.46429e-05 0.000385799 0.000226187 1.05e-05 
5.57771e-05 0.000338425 0.00023285 1.25e-05 
0.000150196 0.000352649 0.000232227 1.25e-05 
0.000141001 0.000402943 0.000236284 1.05e-05 
0.000100179 0.000366129 0.000234078 1.6e-05 
0.000224359 0.000392926 0.000242464 1.05e-05 
0.000161874 0.000373601 0.000231458 1.15e-05 
0.000201845 0.000388313 0.000243366 1.25e-05 
0.000181677 0.000385274 0.000230717 1.15e-05 
0.000244145 0.000353742 0.000234174 1.15e-05 
0.0002895 0.000342644 0.000241096 1.05e-05 
1.44991e-05 0.000463352 0.000239044 1.45e-05 
4.27082e-05 0.000441093 0.000241412 1.25e-05 
1.59989e-05 0.000433095 0.000235509 1.6e-05 
7.56275e-05 0.000401512 0.000236728 1.75e-05 
4.0837e-05 0.000405308 0.000238068 1.75e-05 
0.000152171 0.000428434 0.000231426 1.45e-05 
0.00011504 0.000463138 0.000235432 1.05e-05 
6.05844e-05 0.000472311 0.000233127 1.35e-05 
0.000144088 0.000454172 0.000232518 1.25e-05 
0.000100132 0.000448911 0.000231391 1.05e-05 
0.000112213 0.000417453 0.000223998 2.4e-05 
0.000176089 0.000449653 0.000228682 1.15e-05 
0.000161752 0.000468181 0.000227968 1.05e-05 
0.000211084 0.000408855 0.00023038 1.35e-05 
0.000164823 0.000403537 0.000233433 1.35e-05 
0.000246787 0.000465047 0.000239115 1.05e-05 
0.000288501 0.000451212 0.000229093 1.15e-05 
0.000271341 0.000446297 0.000241952 1.05e-05 
0.000243992 0.000420097 0.00022865 1.05e-05 
0.000252341 0.000438012 0.000235746 1.05e-05 
1.04996e-05 0.000520665 0.000241611 1.05e-05 
0.00013371 0.000483993 0.000236147 1.75e-05 
9.72334e-05 0.00049213 0.000233859 1.05e-05 
0.000235773 0.000517578 0.000230665 1.05e-05 
0.000163311 0.000487201 0.000236732 1.05e-05 
0.000212979 0.000491469 0.00023116 1.15e-05 
0.000224654 0.000476478 0.000242248 1.05e-05 
5.55902e-05 0.000594968 0.000232801 1.35e-05 
3.29825e-05 0.0005874 0.000218636 1.35e-05 
6.07405e-05 0.000564661 0.000230443 1.45e-05 
1.04997e-05 0.000563243 0.000230836 1.05e-05 
3.46322e-05 0.000559654 0.000235161 1.25e-05 
1.14998e-05 0.000548002 0.000246669 1.15e-05 
1.04999e-05 0.000584242 0.000230841 1.05e-05 
0.000116076 0.000583748 0.000241159 1.6e-05 
9.91607e-05 0.000566963 0.000229301 1.05e-05 
8.23058e-05 0.000593587 0.000233107 1.05e-05 
8.95281e-05 0.000541645 0.000224919 1.25e-05 
0.000182518 0.000595802 0.000232364 1.45e-05 
0.000187837 0.000562184 0.000243171 1.15e-05 
0.000155528 0.000608266 0.00023309 1.35e-05 
0.000214399 0.000549356 0.00024183 1.05e-05 
0.000194761 0.000541819 0.000232528 1.25e-05 
0.000170245 0.000538806 0.000236383 1.25e-05 
0.00021052 0.00057481 0.000221998 2.2e-05 
0.0002865 0.000601436 0.000239949 1.35e-05 
0.000263452 0.000594746 0.000240104 1.05e-05 
0.000244579 0.000579161 0.00023481 1.45e-05 
0.000240936 0.000545367 0.000238917 1.35e-05 
0.0002895 0.000544399 0.000234703 1.05e-05 
0.000258298 0.000526492 0.000230476 1.35e-05 
7.47379e-05 0.000660956 0.000240942 1.25e-05 
5.53143e-05 0.000666986 0.000229153 1.05e-05 
1.04996e-05 0.000638504 0.000232069 1.05e-05 
3.12403e-05 0.000632403 0.000235224 1.05e-05 
6.07373e-05 0.000635751 0.000221998 2.2e-05 
1.14997e-05 0.000659927 0.000227171 1.15e-05 
4.02411e-05 0.000613397 0.000233676 1.05e-05 
1.24998e-05 0.000602872 0.000244179 1.25e-05 
0.000116903 0.000663483 0.00023263 1.05e-05 
9.49301e-05 0.000668915 0.000228537 1.25e-05 
9.87574e-05 0.000641752 0.000228625 1.05e-05 
0.000189909 0.000646862 0.0002338 1.75e-05 
0.000162537 0.00065711 0.000230043 1.05e-05 
0.000262742 0.000623534 0.000235984 1.35e-05 
0.000287501 0.000627705 0.000242733 1.25e-05 
0.000241645 0.000644924 0.000236641 1.45e-05 
0.000241515 0.000612337 0.000236042 1.05e-05 
1.04997e-05 0.000723897 0.000244433 1.05e-05 
1.25198e-05 0.000696457 0.000233377 1.25e-05 
4.17875e-05 0.000732331 0.000229596 1.15e-05 
3.0378e-05 0.000676237 0.000234489 1.45e-05 
0.000148142 0.000714725 0.000232329 1.25e-05 
0.000131065 0.000747497 0.000230452 1.05e-05 
9.04905e-05 0.000707932 0.000242363 1.45e-05 
7.50616e-05 0.000685339 0.000231923 1.35e-05 
0.000170638 0.00073399 0.000237096 1.75e-05 
0.000189253 0.000701891 0.000239929 1.9e-05 
0.000168331 0.000674421 0.000240422 1.05e-05 
0.000186371 0.000674382 0.000229674 1.05e-05 
0.000269763 0.000707419 0.000227423 1.05e-05 
0.0002895 0.000711202 0.000236727 1.05e-05 
0.000250367 0.000716173 0.000233003 1.15e-05 
0.0002865 0.000687991 0.000242042 1.35e-05 
0.000222314 0.00072782 0.000234352 1.6e-05 
0.000223485 0.000687097 0.000236893 1.15e-05 
1.95525e-05 0.000751299 0.000238315 1.9e-05 
0.000158127 0.0007885 0.000235769 1.15e-05 
0.000103129 0.000771909 0.000241885 1.25e-05 
0.000186753 0.0007885 0.000248249 1.15e-05 
0.000206423 0.0007885 0.00023633 1.15e-05 
0.000191687 0.000757729 0.000241264 1.45e-05 
0.000265754 0.00078678 0.000232867 1.25e-05 
0.0002895 0.000770989 0.000234459 1.05e-05 
0.000269562 0.000764108 0.000232183 1.05e-05 
0.000230121 0.000771279 0.000229506 1.25e-05 
0.000262053 0.000739198 0.000223542 1.6e-05 
